Linux optc-09-06 4.15.0-58-generic #64-Ubuntu SMP Tue Aug 6 11:12:41 UTC 2019 x86_64 x86_64 x86_64 GNU/Linux

top - 00:07:45 up 1 day, 14:08,  0 users,  load average: 0,85, 0,97, 0,99
Tasks: 291 gesamt,   1 laufend, 150 schlafend,   0 gestoppt,   0 Zombie
%CPU(s):  7,5 be,  0,2 sy,  0,0 ni, 92,3 un,  0,0 wa,  0,0 hi,  0,0 si,  0,0 st
KiB Spch : 97514992 gesamt, 94938328 frei,   648140 belegt,  1928524 Puff/Cache
KiB Swap:  8388604 gesamt,  8388604 frei,        0 belegt. 96124600 verfü Spch 

  PID USER      PR  NI    VIRT    RES    SHR S  %CPU %MEM     ZEIT+ BEFEHL
20222 bzfhende  20   0   52664   4240   3492 R   4,2  0,0   0:00.01 top
    1 root      20   0  225648   9400   6704 S   0,0  0,0   0:12.60 systemd
    2 root      20   0       0      0      0 S   0,0  0,0   0:00.12 kthreadd
    3 root      20   0       0      0      0 I   0,0  0,0   0:02.32 kworker/0:0
    4 root       0 -20       0      0      0 I   0,0  0,0   0:00.00 kworker/0:+
    6 root      20   0       0      0      0 I   0,0  0,0   0:00.00 kworker/u3+
    7 root       0 -20       0      0      0 I   0,0  0,0   0:00.00 mm_percpu_+
    8 root      20   0       0      0      0 S   0,0  0,0   0:00.02 ksoftirqd/0

hard time limit: 04:10:00
hard mem limit: 55100

SLURM jobID: 2182707

@01 /nfs/optimi/kombadon/IP/coral/neos-555001.mps.gz ===========
-----------------------------
Fr 23. Aug 00:07:45 CEST 2019
-----------------------------
@03 1566511665
@05 7200
SCIP version 6.0.0 [precision: 8 byte] [memory: block] [mode: optimized] [LP solver: CPLEX 12.8.0.0] [GitHash: 41ab6e0014]
Copyright (C) 2002-2018 Konrad-Zuse-Zentrum fuer Informationstechnik Berlin (ZIB)

External codes: 
  Readline 7.0         GNU library for command line editing (gnu.org/s/readline)
  CPLEX 12.8.0.0       Linear Programming Solver developed by IBM (www.cplex.com)
  CppAD 20180000.0     Algorithmic Differentiation of C++ algorithms developed by B. Bell (www.coin-or.org/CppAD)
  ZLIB 1.2.11          General purpose compression library by J. Gailly and M. Adler (zlib.net)
  GMP 6.1.2            GNU Multiple Precision Arithmetic Library developed by T. Granlund (gmplib.org)
  bliss 0.73p          Computing Graph Automorphism Groups by T. Junttila and P. Kaski (http://www.tcs.hut.fi/Software/bliss/)

user parameter file <scip.set> not found - using default parameters

SCIP> 
SCIP> set load /home/optimi/bzfhende/opti/scip-opti/check/../settings/enable_treeeprofile.set
loaded parameter file </home/optimi/bzfhende/opti/scip-opti/check/../settings/enable_treeprofile.set>
SCIP> set misc referencevalue 1210625
misc/referencevalue = 1210625
SCIP> set limits time 7200
limits/time = 7200
SCIP> set limits nodes 2100000000
limits/nodes = 2100000000
SCIP> set limits memory 50000
limits/memory = 50000
SCIP> set lp advanced threads 1
lp/threads = 1
SCIP> set timing clocktype 1
timing/clocktype = 1
SCIP> set display freq 10000
display/freq = 10000
SCIP> set memory savefac 1.0
memory/savefac = 1
SCIP> set save /home/optimi/bzfhende/opti/scip-opti/check/treesize.estimation.jouurnal.3/bzfhende.MMMc.243_neos-555001.scip.M640.enable_treeprofile.set
saved parameter file </home/optimi/bzfhende/opti/scip-opti/check/treesize.estimation.journal.3/bzfhende.MMMc.243_neos-555001.scip.M640.enable_treeprofile.set>
SCIP> read /nfs/optimi/kombadon/IP/coral/neos-555001.mps.gz

read problem </nfs/optimi/kombadon/IP/coral/neos-555001.mps.gz>
============

original problem has 3855 variables (3782 bin, 73 int, 0 impl, 0 cont) and 3474 constraints
SCIP> display parameters

number of parameters = 2448
non-default parameter settings:
display/freq = 10000
limits/time = 7200
limits/nodes = 2100000000
limits/memory = 50000
lp/threads = 1
memory/savefac = 1
misc/referencevalue = 1210625
presolving/maxrestarts = 0
estimates/profile/enabled = TRUE
estimates/profile/maxdepthfactor = 10
estimates/profile/freq = 0

SCIP> optimize

Activating tree profile data collection
presolving:
(round 1, fast)       1039 del vars, 1037 del conss, 0 add conss, 0 chg bounds, 107 chg sides, 0 chg coeffs, 0 upgd conss, 0 impls, 1332 clqs
(round 2, fast)       1099 del vars, 1047 del conss, 0 add conss, 0 chg bounds, 107 chg sides, 0 chg coeffs, 0 upgd conss, 0 impls, 1332 clqs
(round 3, exhaustive) 1099 del vars, 1751 del conss, 0 add conss, 0 chg bounds, 107 chg sides, 0 chg coeffs, 0 upgd conss, 0 impls, 1332 clqs
(round 4, exhaustive) 1099 del vars, 1751 del conss, 0 add conss, 0 chg bounds, 107 chg sides, 0 chg coeffs, 1449 upgd conss, 0 impls, 1332 clqs
   (0.0s) sparsify finished: 348/10332 (3.4%) nonzeros canceled - in total 348 canceled nonzeros, 351 changed coefficients, 0 added nonzeros
(round 5, exhaustive) 1099 del vars, 1751 del conss, 0 add conss, 0 chg bounds, 107 chg sides, 351 chg coeffs, 1449 upgd conss, 0 impls, 1332 clqs
   (0.2s) probing: 1000/2688 (37.2%) - 0 fixings, 0 aggregations, 6955 implications, 0 bound changes
   (0.2s) probing: 1001/2688 (37.2%) - 0 fixings, 0 aggregations, 6956 implications, 0 bound changes
   (0.2s) probing aborted: 1000/1000 successive useless probings
presolving (6 rounds: 6 fast, 4 medium, 4 exhaustive):
 1111 deleted vars, 1753 deleted constraints, 0 added constraints, 0 tightened bounds, 0 added holes, 107 changed sides, 351 changed coefficients
 2379 implications, 5909 cliques
presolved problem has 2744 variables (2676 bin, 68 int, 0 impl, 0 cont) and 1721 constraints
    117 constraints of type <knapsack>
   1332 constraints of type <setppc>
    272 constraints of type <linear>
transformed objective value is always integral (scale: 625)
Presolving Time: 0.22

 time | node  | left  |LP iter|LP it/n| mem |mdpt |frac |vars |cons |cols |rows |cuts |confs|strbr|  dualbound   | primalbound  |  gap   
k 0.2s|     1 |     0 |     0 |     - |  30M|   0 |   - |2744 |1726 |2744 |1721 |   0 |   4 |   0 | 3.100000e+05 | 2.073750e+06 | 568.95%
  0.3s|     1 |     0 |   242 |     - |  30M|   0 |  47 |2744 |1810 |2744 |1721 |   0 |  88 |   0 | 9.626250e+05 | 2.073750e+06 | 115.43%
  0.3s|     1 |     0 |   242 |     - |  30M|   0 |  47 |2744 |1811 |2744 |1721 |   0 |  89 |   0 | 9.626250e+05 | 2.073750e+06 | 115.43%
  0.3s|     1 |     0 |   249 |     - |  31M|   0 |  80 |2744 |1811 |2744 |1722 |   1 |  89 |   0 | 9.626250e+05 | 2.073750e+06 | 115.43%
  0.4s|     1 |     0 |   372 |     - |  31M|   0 |  73 |2744 |1811 |2744 |1762 |  41 |  89 |   0 | 1.210625e+06 | 2.073750e+06 |  71.30%
  0.4s|     1 |     0 |   407 |     - |  32M|   0 |  46 |2744 |1811 |2744 |1776 |  55 |  89 |   0 | 1.210625e+06 | 2.073750e+06 |  71.30%
  0.4s|     1 |     0 |   437 |     - |  32M|   0 |  59 |2744 |1811 |2744 |1787 |  66 |  89 |   0 | 1.210625e+06 | 2.073750e+06 |  71.30%
  0.4s|     1 |     0 |   467 |     - |  33M|   0 |  31 |2744 |1811 |2744 |1807 |  86 |  89 |   0 | 1.210625e+06 | 2.073750e+06 |  71.30%
  0.4s|     1 |     0 |   486 |     - |  33M|   0 |  29 |2744 |1811 |2744 |1815 |  94 |  89 |   0 | 1.210625e+06 | 2.073750e+06 |  71.30%
  0.4s|     1 |     0 |   509 |     - |  33M|   0 |  37 |2744 |1811 |2744 |1823 | 102 |  89 |   0 | 1.210625e+06 | 2.073750e+06 |  71.30%
  0.5s|     1 |     0 |   517 |     - |  35M|   0 |  28 |2744 |1811 |2744 |1830 | 109 |  89 |   0 | 1.210625e+06 | 2.073750e+06 |  71.30%
  0.5s|     1 |     0 |   522 |     - |  35M|   0 |  33 |2744 |1811 |2744 |1834 | 113 |  89 |   0 | 1.210625e+06 | 2.073750e+06 |  71.30%
  0.5s|     1 |     0 |   537 |     - |  35M|   0 |  16 |2744 |1811 |2744 |1840 | 119 |  89 |   0 | 1.210625e+06 | 2.073750e+06 |  71.30%
  0.5s|     1 |     0 |   542 |     - |  35M|   0 |  20 |2744 |1811 |2744 |1842 | 121 |  89 |   0 | 1.210625e+06 | 2.073750e+06 |  71.30%
  0.5s|     1 |     0 |   548 |     - |  36M|   0 |  15 |2744 |1811 |2744 |1844 | 123 |  89 |   0 | 1.210625e+06 | 2.073750e+06 |  71.30%
 time | node  | left  |LP iter|LP it/n| mem |mdpt |frac |vars |cons |cols |rows |cuts |confs|strbr|  dualbound   | primalbound  |  gap   
  0.5s|     1 |     0 |   560 |     - |  36M|   0 |   6 |2744 |1811 |2744 |1847 | 126 |  89 |   0 | 1.210625e+06 | 2.073750e+06 |  71.30%
  0.5s|     1 |     0 |   571 |     - |  36M|   0 |  15 |2744 |1811 |2744 |1850 | 129 |  89 |   0 | 1.210625e+06 | 2.073750e+06 |  71.30%
  0.5s|     1 |     0 |   576 |     - |  36M|   0 |   0 |2744 |1813 |2744 |1853 | 132 |  91 |   0 | 1.210625e+06 | 2.073750e+06 |  71.30%
u 0.5s|     1 |     0 |   576 |     - |  36M|   0 |   - |2744 |1813 |2744 |1853 |   0 |  91 |   0 | 1.210625e+06 | 1.210625e+06 |   0.00%
SCIP nodes: 1 Estimation: -1
  0.5s|     1 |     0 |   576 |     - |  36M|   0 |   - |2744 |1813 |2744 |1853 | 132 |  91 |   0 | 1.210625e+06 | 1.210625e+06 |   0.00%
Report 1
Time Elapsed: 0.54
  Tree Data        : 1 nodes (1 visited, 0 inner, 1 leaves, 0 open), progress: 1.0000
Tree Estimation    :       estim       value       trend  resolution      smooth
  wbe              :          -1           -           -           -           -
  tree profile     :          -1           -           -           -           -
  gap              :           1     1.00000     1.00000           1           1
  progress         :           1     1.00000     1.00000           1           1
  leaf-frequency   :           1     0.50000     1.00000           1           1
  ssg              :           1     0.00000    -1.00000           1           1
  open-nodes       :           1     0.00000     0.00000           1           1
End of Report 1


SCIP Status        : problem is solved [optimal solution found]
Solving Time (sec) : 0.54
Solving Nodes      : 1
Primal Bound       : +1.21062500000000e+06 (2 solutions)
Dual Bound         : +1.21062500000000e+06
Gap                : 0.00 %

SCIP> display statistics

SCIP Status        : problem is solved [optimal solution found]
Total Time         :       0.56
  solving          :       0.54
  presolving       :       0.22 (included in solving)
  reading          :       0.02
  copying          :       0.00 (0 times copied the problem)
Original Problem   :
  Problem name     : file
  Variables        : 3855 (3782 binary, 73 integer, 0 implicit integer, 0 continuous)
  Constraints      : 3474 initial, 3474 maximal
  Objective        : minimize, 8 non-zeros (abs.min = 1875, abs.max = 310000)
Presolved Problem  :
  Problem name     : t_file
  Variables        : 2744 (2676 binary, 68 integer, 0 implicit integer, 0 continuous)
  Constraints      : 1721 initial, 1813 maximal
  Objective        : minimize, 61 non-zeros (abs.min = 3, abs.max = 496)
Presolvers         :   ExecTime  SetupTime  Calls  FixedVars   AggrVars   ChgTypes  ChgBounds   AddHoles    DelCons    AddCons   ChgSides   ChgCoefs
  boundshift       :       0.00       0.00      0          0          0          0          0          0          0          0          0          0
  convertinttobin  :       0.00       0.00      0          0          0          0          0          0          0          0          0          0
  domcol           :       0.00       0.00      2          0          0          0          0          0          0          0          0          0
  dualagg          :       0.00       0.00      0          0          0          0          0          0          0          0          0          0
  dualcomp         :       0.00       0.00      0          0          0          0          0          0          0          0          0          0
  dualinfer        :       0.00       0.00      0          0          0          0          0          0          0          0          0          0
  gateextraction   :       0.00       0.00      0          0          0          0          0          0          0          0          0          0
  implics          :       0.00       0.00      4          0          0          0          0          0          0          0          0          0
  inttobinary      :       0.00       0.00      6          0          0          0          0          0          0          0          0          0
  qpkktref         :       0.00       0.00      0          0          0          0          0          0          0          0          0          0
  redvub           :       0.00       0.00      0          0          0          0          0          0          0          0          0          0
  sparsify         :       0.03       0.00      2          0          0          0          0          0          0          0          0        351
  stuffing         :       0.00       0.00      0          0          0          0          0          0          0          0          0          0
  symbreak         :       0.00       0.00      0          0          0          0          0          0          0          0          0          0
  symmetry         :       0.00       0.00      0          0          0          0          0          0          0          0          0          0
  trivial          :       0.00       0.00      6          0          0          0          0          0          0          0          0          0
  tworowbnd        :       0.00       0.00      0          0          0          0          0          0          0          0          0          0
  dualfix          :       0.00       0.00      6         62          0          0          0          0          0          0          0          0
  genvbounds       :       0.00       0.00      0          0          0          0          0          0          0          0          0          0
  orbitalfixing    :       0.00       0.00      0          0          0          0          0          0          0          0          0          0
  probing          :       0.16       0.00      1          0          0          0          0          0          0          0          0          0
  pseudoobj        :       0.00       0.00      0          0          0          0          0          0          0          0          0          0
  vbounds          :       0.00       0.00      1          0          0          0          0          0          0          0          0          0
  knapsack         :       0.00       0.00      6          0          0          0          0          0          0          0          0          0
  setppc           :       0.00       0.00      6          0          0          0          0          0          0          0          0          0
  linear           :       0.02       0.00     10          0       1037          0          0          0       1752          0        107          0
  logicor          :       0.00       0.00      0          0          0          0          0          0          0          0          0          0
  bounddisjunction :       0.00       0.00      0          0          0          0          0          0          0          0          0          0
  benders          :       0.00       0.00      0          0          0          0          0          0          0          0          0          0
  components       :       0.01       0.00      1         12          0          0          0          0          1          0          0          0
  root node        :          -          -      -          0          -          -          2          -          -          -          -          -
Constraints        :     Number  MaxNumber  #Separate #Propagate    #EnfoLP    #EnfoRelax  #EnfoPS    #Check   #ResProp    Cutoffs    DomReds       Cuts    Applied      Conss   Children
  benderslp        :          0          0          0          0          0          0          0         20          0          0          0          0          0          0          0
  integral         :          0          0          0          0          0          0          0         20          0          0          0          0          0          0          0
  knapsack         :        117        117         16      10749          0          0          0         15          0          0          0          0          0          0          0
  setppc           :       1332+      1356         16      11775          0          0          0         14        520         26          0          0          0          0          0
  linear           :        272        272         16      11748          0          0          0          6        467         14          0          0          0          0          0
  logicor          :          0+        63         16         41          0          0          0          0          0          0          0          0          0          0          0
  bounddisjunction :          0+         5          0         51          0          0          0          0          0          0          0          0          0          0          0
  benders          :          0          0          0          0          0          0          0          3          0          0          0          0          0          0          0
  countsols        :          0          0          0          0          0          0          0          3          0          0          0          0          0          0          0
  components       :          0          0          0          0          0          0          0          0          0          0          0          0          0          0          0
Constraint Timings :  TotalTime  SetupTime   Separate  Propagate     EnfoLP     EnfoPS     EnfoRelax   Check    ResProp    SB-Prop
  benderslp        :       0.00       0.00       0.00       0.00       0.00       0.00       0.00       0.00       0.00       0.00
  integral         :       0.00       0.00       0.00       0.00       0.00       0.00       0.00       0.00       0.00       0.00
  knapsack         :       0.02       0.00       0.01       0.01       0.00       0.00       0.00       0.00       0.00       0.00
  setppc           :       0.02       0.00       0.00       0.02       0.00       0.00       0.00       0.00       0.00       0.00
  linear           :       0.04       0.00       0.04       0.00       0.00       0.00       0.00       0.00       0.00       0.00
  logicor          :       0.00       0.00       0.00       0.00       0.00       0.00       0.00       0.00       0.00       0.00
  bounddisjunction :       0.00       0.00       0.00       0.00       0.00       0.00       0.00       0.00       0.00       0.00
  benders          :       0.00       0.00       0.00       0.00       0.00       0.00       0.00       0.00       0.00       0.00
  countsols        :       0.00       0.00       0.00       0.00       0.00       0.00       0.00       0.00       0.00       0.00
  components       :       0.00       0.00       0.00       0.00       0.00       0.00       0.00       0.00       0.00       0.00
Propagators        : #Propagate   #ResProp    Cutoffs    DomReds
  dualfix          :          4          0          0          0
  genvbounds       :          0          0          0          0
  nlobbt           :          0          0          0          0
  obbt             :          0          0          0          0
  orbitalfixing    :          0          0          0          0
  probing          :          0          0          0          0
  pseudoobj        :         23          0          0          1
  redcost          :         18          0          0          1
  rootredcost      :          0          0          0          0
  vbounds          :       8273          0          0          0
Propagator Timings :  TotalTime  SetupTime   Presolve  Propagate    ResProp    SB-Prop
  dualfix          :       0.00       0.00       0.00       0.00       0.00       0.00
  genvbounds       :       0.00       0.00       0.00       0.00       0.00       0.00
  nlobbt           :       0.00       0.00       0.00       0.00       0.00       0.00
  obbt             :       0.00       0.00       0.00       0.00       0.00       0.00
  orbitalfixing    :       0.00       0.00       0.00       0.00       0.00       0.00
  probing          :       0.16       0.00       0.16       0.00       0.00       0.00
  pseudoobj        :       0.01       0.00       0.00       0.01       0.00       0.00
  redcost          :       0.00       0.00       0.00       0.00       0.00       0.00
  rootredcost      :       0.00       0.00       0.00       0.00       0.00       0.00
  vbounds          :       0.01       0.00       0.00       0.01       0.00       0.00
Conflict Analysis  :       Time      Calls    Success    DomReds  Conflicts   Literals    Reconvs ReconvLits   Dualrays   Nonzeros   LP Iters   (pool size: [10000,10000])
  propagation      :       0.00         33         33          -        161      111.4          0        0.0          -          -          -
  infeasible LP    :       0.00          0          0          -          0        0.0          0        0.0          0        0.0          0
  bound exceed. LP :       0.00          0          0          -          0        0.0          0        0.0          0        0.0          0
  strong branching :       0.00          0          0          -          0        0.0          0        0.0          -          -          0
  pseudo solution  :       0.00          0          0          -          0        0.0          0        0.0          -          -          -
  applied globally :       0.00          -          -          0         91       30.9          -          -          0          -          -
  applied locally  :          -          -          -          0          0        0.0          -          -          0          -          -
Separators         :   ExecTime  SetupTime      Calls    Cutoffs    DomReds       Cuts    Applied      Conss
  cut pool         :       0.00                    30          -          -        271          -          -    (maximal pool size: 724)
  aggregation      :       0.02       0.00         15          0          0          0          0          0
  cgmip            :       0.00       0.00          0          0          0          0          0          0
  clique           :       0.08       0.00         15          0          0          0          0          0
  closecuts        :       0.00       0.00          0          0          0          0          0          0
  cmir             :       0.00       0.00          0          0          0          0        105          0
  convexproj       :       0.00       0.00          0          0          0          0          0          0
  disjunctive      :       0.00       0.00          0          0          0          0          0          0
  eccuts           :       0.00       0.00          0          0          0          0          0          0
  flowcover        :       0.00       0.00          0          0          0          0          0          0
  gauge            :       0.00       0.00          0          0          0          0          0          0
  gomory           :       0.02       0.00         10          0          0          0         22          0
  impliedbounds    :       0.00       0.00         15          0          0          0          0          0
  intobj           :       0.00       0.00          0          0          0          0          0          0
  mcf              :       0.00       0.00          1          0          0          0          0          0
  oddcycle         :       0.00       0.00          0          0          0          0          0          0
  rapidlearning    :       0.00       0.00          0          0          0          0          0          0
  strongcg         :       0.01       0.00         15          0          0          0          1          0
  zerohalf         :       0.01       0.00         15          0          0          0          4          0
Pricers            :   ExecTime  SetupTime      Calls       Vars
  problem variables:       0.00          -          0          0
Branching Rules    :   ExecTime  SetupTime   BranchLP  BranchExt   BranchPS    Cutoffs    DomReds       Cuts      Conss   Children
  allfullstrong    :       0.00       0.00          0          0          0          0          0          0          0          0
  cloud            :       0.00       0.00          0          0          0          0          0          0          0          0
  distribution     :       0.00       0.00          0          0          0          0          0          0          0          0
  fullstrong       :       0.00       0.00          0          0          0          0          0          0          0          0
  inference        :       0.00       0.00          0          0          0          0          0          0          0          0
  leastinf         :       0.00       0.00          0          0          0          0          0          0          0          0
  lookahead        :       0.00       0.00          0          0          0          0          0          0          0          0
  mostinf          :       0.00       0.00          0          0          0          0          0          0          0          0
  multaggr         :       0.00       0.00          0          0          0          0          0          0          0          0
  nodereopt        :       0.00       0.00          0          0          0          0          0          0          0          0
  pscost           :       0.00       0.00          0          0          0          0          0          0          0          0
  random           :       0.00       0.00          0          0          0          0          0          0          0          0
  relpscost        :       0.00       0.00          0          0          0          0          0          0          0          0
Primal Heuristics  :   ExecTime  SetupTime      Calls      Found       Best
  LP solutions     :       0.00          -          -          0          0
  relax solutions  :       0.00          -          -          0          0
  pseudo solutions :       0.00          -          -          0          0
  strong branching :       0.00          -          -          0          0
  actconsdiving    :       0.00       0.00          0          0          0
  alns             :       0.00       0.00          0          0          0
  bound            :       0.00       0.00          0          0          0
  clique           :       0.00       0.00          1          0          0
  coefdiving       :       0.00       0.00          0          0          0
  completesol      :       0.00       0.00          0          0          0
  conflictdiving   :       0.00       0.00          0          0          0
  crossover        :       0.00       0.00          0          0          0
  dins             :       0.00       0.00          0          0          0
  distributiondivin:       0.00       0.00          0          0          0
  dualval          :       0.00       0.00          0          0          0
  farkasdiving     :       0.00       0.00          1          1          1
  feaspump         :       0.00       0.00          0          0          0
  fixandinfer      :       0.00       0.00          0          0          0
  fracdiving       :       0.00       0.00          0          0          0
  gins             :       0.00       0.00          0          0          0
  guideddiving     :       0.00       0.00          0          0          0
  indicator        :       0.00       0.00          0          0          0
  intdiving        :       0.00       0.00          0          0          0
  intshifting      :       0.00       0.00          0          0          0
  linesearchdiving :       0.00       0.00          0          0          0
  localbranching   :       0.00       0.00          0          0          0
  locks            :       0.03       0.00          1          1          1
  lpface           :       0.00       0.00          0          0          0
  mpec             :       0.00       0.00          0          0          0
  multistart       :       0.00       0.00          0          0          0
  mutation         :       0.00       0.00          0          0          0
  nlpdiving        :       0.00       0.00          0          0          0
  objpscostdiving  :       0.00       0.00          0          0          0
  octane           :       0.00       0.00          0          0          0
  ofins            :       0.00       0.00          0          0          0
  oneopt           :       0.00       0.00          1          0          0
  proximity        :       0.00       0.00          0          0          0
  pscostdiving     :       0.00       0.00          0          0          0
  randrounding     :       0.01       0.00         15          0          0
  rens             :       0.00       0.00          0          0          0
  reoptsols        :       0.00       0.00          0          0          0
  repair           :       0.00       0.00          0          0          0
  rins             :       0.00       0.00          0          0          0
  rootsoldiving    :       0.00       0.00          0          0          0
  rounding         :       0.00       0.00         15          0          0
  shiftandpropagate:       0.00       0.00          0          0          0
  shifting         :       0.00       0.00         15          0          0
  simplerounding   :       0.00       0.00          0          0          0
  subnlp           :       0.00       0.00          0          0          0
  trivial          :       0.00       0.00          2          0          0
  trivialnegation  :       0.00       0.00          0          0          0
  trysol           :       0.00       0.00          0          0          0
  twoopt           :       0.00       0.00          0          0          0
  undercover       :       0.00       0.00          0          0          0
  vbounds          :       0.06       0.00          1          0          0
  veclendiving     :       0.00       0.00          0          0          0
  zeroobj          :       0.00       0.00          0          0          0
  zirounding       :       0.00       0.00          0          0          0
  other solutions  :          -          -          -          0          -
Diving Statistics  :      Calls      Nodes   LP Iters Backtracks  Conflicts   MinDepth   MaxDepth   AvgDepth  RoundSols  NLeafSols  MinSolDpt  MaxSolDpt  AvgSolDpt
  actconsdiving    :          0          -          -          -          -          -          -          -          -          -          -          -          -
  coefdiving       :          0          -          -          -          -          -          -          -          -          -          -          -          -
  conflictdiving   :          0          -          -          -          -          -          -          -          -          -          -          -          -
  distributiondivin:          0          -          -          -          -          -          -          -          -          -          -          -          -
  farkasdiving     :          1          0          0          0          0          1          1        1.0          0          1          1          1        1.0
  fracdiving       :          0          -          -          -          -          -          -          -          -          -          -          -          -
  guideddiving     :          0          -          -          -          -          -          -          -          -          -          -          -          -
  linesearchdiving :          0          -          -          -          -          -          -          -          -          -          -          -          -
  pscostdiving     :          0          -          -          -          -          -          -          -          -          -          -          -          -
  veclendiving     :          0          -          -          -          -          -          -          -          -          -          -          -          -
Neighborhoods      :      Calls  SetupTime  SolveTime SolveNodes       Sols       Best       Exp3  EpsGreedy        UCB TgtFixRate  Opt  Inf Node Stal  Sol  Usr Othr Actv
  rens             :          0       0.00       0.00          0          0          0    0.00000   -1.00000    1.00000      0.900    0    0    0    0    0    0    0    1
  rins             :          0       0.00       0.00          0          0          0    0.00000   -1.00000    1.00000      0.900    0    0    0    0    0    0    0    1
  mutation         :          0       0.00       0.00          0          0          0    0.00000   -1.00000    1.00000      0.900    0    0    0    0    0    0    0    1
  localbranching   :          0       0.00       0.00          0          0          0    0.00000   -1.00000    1.00000      0.900    0    0    0    0    0    0    0    1
  crossover        :          0       0.00       0.00          0          0          0    0.00000   -1.00000    1.00000      0.900    0    0    0    0    0    0    0    1
  proximity        :          0       0.00       0.00          0          0          0    0.00000   -1.00000    1.00000      0.900    0    0    0    0    0    0    0    1
  zeroobjective    :          0       0.00       0.00          0          0          0    0.00000   -1.00000    1.00000      0.900    0    0    0    0    0    0    0    1
  dins             :          0       0.00       0.00          0          0          0    0.00000   -1.00000    1.00000      0.900    0    0    0    0    0    0    0    1
LP                 :       Time      Calls Iterations  Iter/call   Iter/sec  Time-0-It Calls-0-It    ItLimit
  primal LP        :       0.00          0          0       0.00          -       0.00          0
  dual LP          :       0.02         17        576      36.00   28800.00       0.00          1
  lex dual LP      :       0.00          0          0       0.00          -
  barrier LP       :       0.00          0          0       0.00          -       0.00          0
  resolve instable :       0.00          0          0       0.00          -
  diving/probing LP:       0.00          0          0       0.00          -
  strong branching :       0.00          0          0       0.00          -          -          -          0
    (at root node) :          -          0          0       0.00          -
  conflict analysis:       0.00          0          0       0.00          -
B&B Tree           :
  number of runs   :          1
  nodes            :          1 (0 internal, 1 leaves)
  feasible leaves  :          0
  infeas. leaves   :          0
  objective leaves :          1
  nodes (total)    :          1 (0 internal, 1 leaves)
  nodes left       :          0
  max depth        :          0
  max depth (total):          0
  backtracks       :          0 (0.0%)
  early backtracks :          0 (0.0%)
  nodes exc. ref.  :          0 (0.0%)
  delayed cutoffs  :          0
  repropagations   :          0 (0 domain reductions, 0 cutoffs)
  avg switch length:       2.00
  switching time   :       0.00
Root Node          :
  First LP value   : +9.62625000000000e+05
  First LP Iters   :        242
  First LP Time    :       0.00
  Final Dual Bound : +1.21062500000000e+06
  Final Root Iters :        576
  Root LP Estimate :                     -
Solution           :
  Solutions found  :          2 (2 improvements)
  First Solution   : +2.07375000000000e+06   (in run 1, after 1 nodes, 0.25 seconds, depth 1067, found by <locks>)
  Gap First Sol.   :     568.95 %
  Gap Last Sol.    :       0.00 %
  Primal Bound     : +1.21062500000000e+06   (in run 1, after 1 nodes, 0.54 seconds, depth 1, found by <farkasdiving>)
  Dual Bound       : +1.21062500000000e+06
  Gap              :       0.00 %
  Avg. Gap         :      74.58 % (40.27 primal-dual integral)
  Tree Data        : 1 nodes (1 visited, 0 inner, 1 leaves, 0 open), progress: 1.0000
Tree Estimation    :       estim       value       trend  resolution      smooth
  wbe              :           1           -           -           -           -
  tree profile     :          -1           -           -           -           -
  gap              :           1     1.00000     1.00000           1           1
  progress         :           1     1.00000     1.00000           1           1
  leaf-frequency   :           1     0.50000     1.00000           1           1
  ssg              :           1     0.00000    -1.00000           1           1
  open-nodes       :           1     0.00000     0.00000           1           1


SCIP> checksol

check best solution
solution is feasible in original problem
Violation          :    absolute    relative
  bounds           : 2.22045e-16 2.22045e-16
  integrality      : 2.22045e-16           -
  LP rows          : 3.55271e-15 3.55271e-15
  constraints      : 3.55271e-15 3.55271e-15

SCIP> write sol /local/tmp/bzfhende-tmpdir/bzfhende.MMMc.243_neos-555001.scip.M6440.enable_treeprofile.sol

written solution information to file </local/tmp/bzfhende-tmpdir/bzfhende.MMMc.243_neos-555001.scip.M640.enable_treeprofile.sol>

SCIP> quit

Disabling tree profile data collection
Read MPS: 1
MIP has 3855 vars and 3474 constraints
Read SOL: 1
Objective value computed by solver: 1210625

Integrality tolerance: 1/10000
Linear tolerance: 1/10000
Objective tolerance: 1/10000

Check SOL: Integrality 1 Constraints 1 Objective 1
Maximum violations: Integrality 0 Constraints 0 Objective 0
@04 1566511666
-----------------------------
Fr 23. Aug 00:07:46 CEST 2019
-----------------------------

=ready=
